NAME MasterProb
ROWS
 N  OBJ
 L  c0      
 L  c1      
 L  c2      
 L  c3      
 L  c4      
 L  c5      
 L  c6      
 L  c7      
 L  c8      
 L  c9      
 L  c10     
 L  c11     
 L  c12     
COLUMNS
    MARKER    'MARKER'                 'INTORG'
    X[1,1]    OBJ       4.0141244503886008e+02
    X[1,1]    c0        345
    X[1,1]    c1        1
    X[1,2]    OBJ       3.7197553240267694e+03
    X[1,2]    c0        3.1969999999999995e+03
    X[1,2]    c2        1
    X[1,3]    OBJ       5.3521659338514667e+02
    X[1,3]    c0        4.5999999999999994e+02
    X[1,3]    c3        1
    X[2,1]    OBJ       4.0141244503886008e+02
    X[2,1]    c0        345
    X[2,1]    c4        1
    X[2,2]    OBJ       3.7197553240267694e+03
    X[2,2]    c0        3.1969999999999995e+03
    X[2,2]    c5        1
    X[2,3]    OBJ       5.3521659338514667e+02
    X[2,3]    c0        4.5999999999999994e+02
    X[2,3]    c6        1
    X[3,1]    OBJ       4.0141244503886008e+02
    X[3,1]    c0        345
    X[3,1]    c7        1
    X[3,2]    OBJ       3.7197553240267694e+03
    X[3,2]    c0        3.1969999999999995e+03
    X[3,2]    c8        1
    X[3,3]    OBJ       5.3521659338514667e+02
    X[3,3]    c0        4.5999999999999994e+02
    X[3,3]    c9        1
    X[4,1]    OBJ       4.0141244503886008e+02
    X[4,1]    c0        345
    X[4,1]    c10       1
    X[4,2]    OBJ       3.7197553240267694e+03
    X[4,2]    c0        3.1969999999999995e+03
    X[4,2]    c11       1
    X[4,3]    OBJ       5.3521659338514667e+02
    X[4,3]    c0        4.5999999999999994e+02
    X[4,3]    c12       1
    U[1]      OBJ       1.4288209485175863e+06
    U[1]      c0        87382
    U[1]      c1        -600
    U[1]      c2        -318
    U[1]      c3        -100
    U[2]      OBJ       1.3420765946244986e+06
    U[2]      c0        82077
    U[2]      c4        -600
    U[2]      c5        -299
    U[2]      c6        -100
    U[3]      OBJ       9615950.92129068
    U[3]      c0        588080
    U[3]      c7        -600
    U[3]      c8        -2142
    U[3]      c9        -100
    U[4]      OBJ       5344743.96304843
    U[4]      c0        326867
    U[4]      c10       -600
    U[4]      c11       -1190
    U[4]      c12       -100
    MARKER    'MARKER'                 'INTEND'
    eta       OBJ       1
RHS
    RHS1      c0        10000000
BOUNDS
 LI BND1      X[1,1]    0
 LI BND1      X[1,2]    0
 LI BND1      X[1,3]    0
 LI BND1      X[2,1]    0
 LI BND1      X[2,2]    0
 LI BND1      X[2,3]    0
 LI BND1      X[3,1]    0
 LI BND1      X[3,2]    0
 LI BND1      X[3,3]    0
 LI BND1      X[4,1]    0
 LI BND1      X[4,2]    0
 LI BND1      X[4,3]    0
 BV BND1      U[1]    
 BV BND1      U[2]    
 BV BND1      U[3]    
 BV BND1      U[4]    
 LO BND1      eta       -100000000
ENDATA
